# Objective value = 3.3686469042936835e+01
P_capacity 2.9995033709002672e+00
z_e(1) 1.3991250864219757e+00
z_e(2) 0
z_e(3) 1.4520095808455467e+00
z_e(4) 0
z_e(5) 1.4520095808455471e+00
z_e(6) 0
z_e(7) 1.4520095808455471e+00
z_e(8) 0
z_e(9) 1.4520095808455471e+00
z_e(10) 1.4520095808455471e+00
z_e(11) 0
z_e(12) 1.4520095808455471e+00
z_e(13) 1.4520095808455471e+00
z_e(14) 1.3740813010850110e+00
z_e(15) 0
z_e(16) 1.4520095808455471e+00
z_e(17) 0
z_e(18) 8.3930905122611121e-01
z_e(19) 8.3891556782885512e-01
z_e(20) 1.3688472878059792e+00
z_e(21) 0
z_e(22) 1.2525972473031852e+00
z_e(23) 0
z_e(24) 0
P_generation(1) 2.9373564280000064e+00
P_generation(2) 0
P_generation(3) 2.9995033709002668e+00
P_generation(4) 0
P_generation(5) 2.9995033709002672e+00
P_generation(6) 0
P_generation(7) 2.9995033709002672e+00
P_generation(8) 0
P_generation(9) 2.9995033709002672e+00
P_generation(10) 2.9995033709002672e+00
P_generation(11) 0
P_generation(12) 2.9995033709002672e+00
P_generation(13) 2.9995033709002672e+00
P_generation(14) 2.9079263518631899e+00
P_generation(15) 0
P_generation(16) 2.9995033709002672e+00
P_generation(17) 0
P_generation(18) 2.2794914800000283e+00
P_generation(19) 2.2790290800000284e+00
P_generation(20) 2.9017756279518307e+00
P_generation(21) 0
P_generation(22) 2.7651649879518376e+00
P_generation(23) 0
P_generation(24) 0
P_load(1,c1) 1.5000000000000058e+00
P_load(1,c2) 1.4373564280000004e+00
P_load(2,c1) 0
P_load(2,c2) 1.7763568394002505e-15
P_load(3,c1) 1.4995033709002663e+00
P_load(3,c2) 1.5000000000000004e+00
P_load(4,c1) 0
P_load(4,c2) 0
P_load(5,c1) 1.4995033709002383e+00
P_load(5,c2) 1.5000000000000289e+00
P_load(6,c1) 0
P_load(6,c2) 0
P_load(7,c1) 1.4995033709002668e+00
P_load(7,c2) 1.5000000000000004e+00
P_load(8,c1) 0
P_load(8,c2) 0
P_load(9,c1) 1.4995033709002383e+00
P_load(9,c2) 1.5000000000000289e+00
P_load(10,c1) 1.4995033709002668e+00
P_load(10,c2) 1.5000000000000004e+00
P_load(11,c1) 0
P_load(11,c2) 0
P_load(12,c1) 1.4995033709002383e+00
P_load(12,c2) 1.5000000000000289e+00
P_load(13,c1) 1.4995033709002383e+00
P_load(13,c2) 1.5000000000000289e+00
P_load(14,c1) 1.4079263518631611e+00
P_load(14,c2) 1.5000000000000289e+00
P_load(15,c1) 0
P_load(15,c2) 0
P_load(16,c1) 1.4995033709002383e+00
P_load(16,c2) 1.5000000000000289e+00
P_load(17,c1) 0
P_load(17,c2) 0
P_load(18,c1) 7.7949147999999946e-01
P_load(18,c2) 1.5000000000000289e+00
P_load(19,c1) 7.7902907999999949e-01
P_load(19,c2) 1.5000000000000289e+00
P_load(20,c1) 1.4017756279518019e+00
P_load(20,c2) 1.5000000000000289e+00
P_load(21,c1) 0
P_load(21,c2) 0
P_load(22,c1) 1.2651649879518088e+00
P_load(22,c2) 1.5000000000000289e+00
P_load(23,c1) 0
P_load(23,c2) 0
P_load(24,c1) 2.8421709430404007e-14
P_load(24,c2) 0
Temp(1,c1) 3.6801929999999858e+00
Temp(1,c2) 3.0068019299999991e+00
Temp(2,c1) 1.7547531899999740e+00
Temp(2,c2) 1.3524475318999980e+00
Temp(3,c1) 3.9030851476999828e+00
Temp(3,c2) 3.5691714514769934e+00
Temp(4,c1) 1.9416752453403188e+00
Temp(4,c2) 1.6632853047259037e+00
Temp(5,c1) 4.0696204536324689e+00
Temp(5,c2) 3.8385568029225001e+00
Temp(6,c1) 2.1093265492643534e+00
Temp(6,c2) 1.9163021464256031e+00
Temp(7,c1) 4.3755750358894137e+00
Temp(7,c2) 4.2153647815332507e+00
Temp(8,c1) 2.5075138525375462e+00
Temp(8,c2) 2.3732977686725971e+00
Temp(9,c1) 4.7053309976061630e+00
Temp(9,c2) 4.5939316479982555e+00
Temp(10,c1) 3.1213847007625186e+00
Temp(10,c2) 3.0276816678384799e+00
Temp(11,c1) 1.8080624743822233e+00
Temp(11,c2) 1.7290473843059373e+00
Temp(12,c1) 4.6382645537372458e+00
Temp(12,c2) 4.5726820289739276e+00
Temp(13,c1) 3.2397298523513181e+00
Temp(13,c2) 3.1840547840482878e+00
Temp(14,c1) 2.2496243502009978e+00
Temp(14,c2) 2.2021724707600070e+00
Temp(15,c1) 1.9969425310089255e+00
Temp(15,c2) 1.7273733507307336e+00
Temp(16,c1) 5.4767299007374080e+00
Temp(16,c2) 5.2529874811065085e+00
Temp(17,c1) 4.4464975903614521e+00
Temp(17,c2) 4.2595498093183295e+00
Temp(18,c1) 7.0000000000000053e+00
Temp(18,c2) 6.8448333417342138e+00
Temp(19,c1) 7.0000000000000053e+00
Temp(19,c2) 5.0699403736393247e+00
Temp(20,c1) 7.0000000000000053e+00
Temp(20,c2) 3.5956232101205674e+00
Temp(21,c1) 5.2716325301204998e+00
Temp(21,c2) 2.2004388643999988e+00
Temp(22,c1) 7.0000000000000142e+00
Temp(22,c2) 4.4509092574519986e+00
Temp(23,c1) 5.2716325301204892e+00
Temp(23,c2) 2.5687996836850866e+00
Temp(24,c1) 7.0000000000000053e+00
Temp(24,c2) 4.7566487374586215e+00
mu_plus(1,c1) 0
mu_minus(1,c1) 0
epsilon(1,c1) -6.8019299999998520e-04
mu_plus(1,c2) 0
mu_minus(1,c2) 0
epsilon(1,c2) -6.8019299999999561e-04
mu_plus(2,c1) 0
mu_minus(2,c1) 0
epsilon(2,c1) -2.3198070000000136e-03
mu_plus(2,c2) 0
mu_minus(2,c2) 0
epsilon(2,c2) -1.9931980700000021e-01
mu_plus(3,c1) 0
mu_minus(3,c1) 0
epsilon(3,c1) -1.7068937979518432e-03
mu_plus(3,c2) 0
mu_minus(3,c2) 0
epsilon(3,c2) -1.7156947211120599e-01
mu_plus(4,c1) 0
mu_minus(4,c1) 0
epsilon(4,c1) -3.3315886176042420e-03
mu_plus(4,c2) 0
mu_minus(4,c2) 0
epsilon(4,c2) -3.6776017064893418e-01
mu_plus(5,c1) 0
mu_minus(5,c1) 0
epsilon(5,c1) -2.7252628481587889e-03
mu_plus(5,c2) 0
mu_minus(5,c2) 0
epsilon(5,c2) -3.4205360283937847e-01
mu_plus(6,c1) 0
mu_minus(6,c1) 0
epsilon(6,c1) -4.3565497577041645e-03
mu_plus(6,c2) 0
mu_minus(6,c2) 0
epsilon(6,c2) -5.4267878096002187e-01
mu_plus(7,c1) 0
mu_minus(7,c1) 0
epsilon(7,c1) -3.5915358094150696e-03
mu_plus(7,c2) 0
mu_minus(7,c2) 0
epsilon(7,c2) -5.0740036482734552e-01
mu_plus(8,c1) 0
mu_minus(8,c1) 0
epsilon(8,c1) -4.9205083817802642e-03
mu_plus(8,c2) 0
mu_minus(8,c2) 0
epsilon(8,c2) -6.8683203368685042e-01
mu_plus(9,c1) 0
mu_minus(9,c1) 0
epsilon(9,c1) -3.8737076917757830e-03
mu_plus(9,c2) 0
mu_minus(9,c2) 0
epsilon(9,c2) -6.3546851673135529e-01
mu_plus(10,c1) 0
mu_minus(10,c1) 0
epsilon(10,c1) -4.5208710735099578e-03
mu_plus(10,c2) 0
mu_minus(10,c2) 0
epsilon(10,c2) -7.6228957825000887e-01
mu_plus(11,c1) 0
mu_minus(11,c1) 0
epsilon(11,c1) -6.8829019266598568e-03
mu_plus(11,c2) 0
mu_minus(11,c2) 0
epsilon(11,c2) -1.0715479997824280e+00
mu_plus(12,c1) 0
mu_minus(12,c1) 0
epsilon(12,c1) -6.3188402083406798e-03
mu_plus(12,c2) 0
mu_minus(12,c2) 0
epsilon(12,c2) -1.1015419239578739e+00
mu_plus(13,c1) 0
mu_minus(13,c1) 0
epsilon(13,c1) -7.3242293445654975e-03
mu_plus(13,c2) 0
mu_minus(13,c2) 0
epsilon(13,c2) -1.3049836693410179e+00
mu_plus(14,c1) 0
mu_minus(14,c1) 0
epsilon(14,c1) -9.7284397522463886e-03
mu_plus(14,c2) 0
mu_minus(14,c2) 0
epsilon(14,c2) -1.6683932798373706e+00
mu_plus(15,c1) 0
mu_minus(15,c1) 0
epsilon(15,c1) -1.2929514724382418e-02
mu_plus(15,c2) 0
mu_minus(15,c2) 0
epsilon(15,c2) -2.1634408973063826e+00
mu_plus(16,c1) 0
mu_minus(16,c1) 0
epsilon(16,c1) -1.2593716654994072e-02
mu_plus(16,c2) 0
mu_minus(16,c2) 0
epsilon(16,c2) -2.3351110231273875e+00
mu_plus(17,c1) 0
mu_minus(17,c1) 0
epsilon(17,c1) -1.3430384415220153e-02
mu_plus(17,c2) 0
mu_minus(17,c2) 0
epsilon(17,c2) -2.6616337857777772e+00
mu_plus(18,c1) 0
mu_minus(18,c1) 0
epsilon(18,c1) -1.1361908934000027e-02
mu_plus(18,c2) 0
mu_minus(18,c2) 0
epsilon(18,c2) -2.7435547609691038e+00
mu_plus(19,c1) 0
mu_minus(19,c1) 0
epsilon(19,c1) -8.8697698000000276e-03
mu_plus(19,c2) 0
mu_minus(19,c2) 0
epsilon(19,c2) -3.0560972573556291e+00
mu_plus(20,c1) 0
mu_minus(20,c1) 0
epsilon(20,c1) -5.8671925301205111e-03
mu_plus(20,c2) 0
mu_minus(20,c2) 0
epsilon(20,c2) -3.6102830558356307e+00
mu_plus(21,c1) 0
mu_minus(21,c1) 0
epsilon(21,c1) -4.3319999999997805e-03
mu_plus(21,c2) 0
mu_minus(21,c2) 0
epsilon(21,c2) -4.4460712884284721e+00
mu_plus(22,c1) 0
mu_minus(22,c1) 0
epsilon(22,c1) -0.0004
mu_plus(22,c2) 0
mu_minus(22,c2) 0
epsilon(22,c2) -5.1819040514256303e+00
mu_plus(23,c1) 0
mu_minus(23,c1) 0
epsilon(23,c1) 2.2549789519521468e-03
mu_plus(23,c2) 0
mu_minus(23,c2) 0
epsilon(23,c2) -6.2952097386230390e+00
mu_plus(24,c1) 0
mu_minus(24,c1) 0
epsilon(24,c1) 7.5361192192202608e-03
mu_plus(24,c2) 0
mu_minus(24,c2) 0
epsilon(24,c2) -7.3729456203339483e+00
lambda(1) 1.7004824999999890e-03
alpha_plus(1,c1) 0
alpha_minus(1,c1) 0
alpha_plus(1,c2) 0
alpha_minus(1,c2) 0
lambda(2) 4.9829951750000057e-01
alpha_plus(2,c1) 0
alpha_minus(2,c1) 4.9250000000000055e-01
alpha_plus(2,c2) 0
alpha_minus(2,c2) 0
lambda(3) 4.2672344948796077e-03
alpha_plus(3,c1) 0
alpha_minus(3,c1) 0
alpha_plus(3,c2) 4.2465644578313538e-01
alpha_minus(3,c2) 0
lambda(4) 9.1940042662233534e-01
alpha_plus(4,c1) 0
alpha_minus(4,c1) 9.1107145507832477e-01
alpha_plus(4,c2) 0
alpha_minus(4,c2) 0
lambda(5) 6.8131571203969713e-03
alpha_plus(5,c1) 0
alpha_minus(5,c1) 0
alpha_plus(5,c2) 8.4832084997804913e-01
alpha_minus(5,c2) 0
lambda(6) 1.3566969524000545e+00
alpha_plus(6,c1) 0
alpha_minus(6,c1) 1.3458055780057943e+00
alpha_plus(6,c2) 0
alpha_minus(6,c2) 0
lambda(7) 8.9788395235376739e-03
alpha_plus(7,c1) 0
alpha_minus(7,c1) 0
alpha_plus(7,c2) 1.2595220725448260e+00
alpha_minus(7,c2) 0
lambda(8) 1.7170800842171259e+00
alpha_plus(8,c1) 0
alpha_minus(8,c1) 1.7047788132626753e+00
alpha_plus(8,c2) 0
alpha_minus(8,c2) 0
lambda(9) 9.6842692294394576e-03
alpha_plus(9,c1) 0
alpha_minus(9,c1) 0
alpha_plus(9,c2) 1.5789870225989486e+00
alpha_minus(9,c2) 0
lambda(10) 1.1302177683774894e-02
alpha_plus(10,c1) 0
alpha_minus(10,c1) 0
alpha_plus(10,c2) 1.8944217679412472e+00
alpha_minus(10,c2) 0
lambda(11) 2.6788699994560696e+00
alpha_plus(11,c1) 0
alpha_minus(11,c1) 2.6616627446394201e+00
alpha_plus(11,c2) 0
alpha_minus(11,c2) 0
lambda(12) 1.5797100520851814e-02
alpha_plus(12,c1) 0
alpha_minus(12,c1) 0
alpha_plus(12,c2) 2.7380577093738325e+00
alpha_minus(12,c2) 0
lambda(13) 1.8310573361413743e-02
alpha_plus(13,c1) 0
alpha_minus(13,c1) 0
alpha_plus(13,c2) 3.2441485999911310e+00
alpha_minus(13,c2) 0
lambda(14) 2.4321099380615972e-02
alpha_plus(14,c1) 0
alpha_minus(14,c1) 0
alpha_plus(14,c2) 4.1466621002128106e+00
alpha_minus(14,c2) 0
lambda(15) 5.4086022432659560e+00
alpha_plus(15,c1) 0
alpha_minus(15,c1) 5.3762784564550001e+00
alpha_plus(15,c2) 0
alpha_minus(15,c2) 0
lambda(16) 3.1484291637485180e-02
alpha_plus(16,c1) 0
alpha_minus(16,c1) 0
alpha_plus(16,c2) 5.8062932661809841e+00
alpha_minus(16,c2) 0
lambda(17) 6.6540844644444430e+00
alpha_plus(17,c1) 0
alpha_minus(17,c1) 6.6205085034063922e+00
alpha_plus(17,c2) 0
alpha_minus(17,c2) 0
lambda(18) 2.8404772335000068e-02
alpha_plus(18,c1) 0
alpha_minus(18,c1) 0
alpha_plus(18,c2) 6.8304821300877592e+00
alpha_minus(18,c2) 0
lambda(19) 2.2174424500000067e-02
alpha_plus(19,c1) 0
alpha_minus(19,c1) 0
alpha_plus(19,c2) 7.6180687188890719e+00
alpha_minus(19,c2) 0
lambda(20) 1.4667981325301277e-02
alpha_plus(20,c1) 0
alpha_minus(20,c1) 0
alpha_plus(20,c2) 9.0110396582637744e+00
alpha_minus(20,c2) 0
lambda(21) 1.1115178221071179e+01
alpha_plus(21,c1) 0
alpha_minus(21,c1) 1.1104348221071181e+01
alpha_plus(21,c2) 0
alpha_minus(21,c2) 0
lambda(22) 0.001
alpha_plus(22,c1) 0
alpha_minus(22,c1) 0
alpha_plus(22,c2) 1.2953760128564076e+01
alpha_minus(22,c2) 0
lambda(23) 1.5738024346557596e+01
alpha_plus(23,c1) 0
alpha_minus(23,c1) 1.5743661793937477e+01
alpha_plus(23,c2) 0
alpha_minus(23,c2) 0
lambda(24) 1.8432364050834870e+01
alpha_plus(24,c1) 0
alpha_minus(24,c1) 1.8451204348882921e+01
alpha_plus(24,c2) 0
alpha_minus(24,c2) 0
b1(1,c1) 0
b1(1,c2) 0
b1(2,c1) 0
b1(2,c2) 0
b1(3,c1) 0
b1(3,c2) 0
b1(4,c1) 0
b1(4,c2) 0
b1(5,c1) 0
b1(5,c2) 0
b1(6,c1) 0
b1(6,c2) 0
b1(7,c1) 0
b1(7,c2) 0
b1(8,c1) 0
b1(8,c2) 0
b1(9,c1) 0
b1(9,c2) 0
b1(10,c1) 0
b1(10,c2) 0
b1(11,c1) 0
b1(11,c2) 0
b1(12,c1) 0
b1(12,c2) 0
b1(13,c1) 0
b1(13,c2) 0
b1(14,c1) 0
b1(14,c2) 0
b1(15,c1) 0
b1(15,c2) 0
b1(16,c1) 0
b1(16,c2) 0
b1(17,c1) 0
b1(17,c2) 0
b1(18,c1) 0
b1(18,c2) 0
b1(19,c1) 0
b1(19,c2) 0
b1(20,c1) 0
b1(20,c2) 0
b1(21,c1) 0
b1(21,c2) 0
b1(22,c1) 0
b1(22,c2) 0
b1(23,c1) 0
b1(23,c2) 0
b1(24,c1) 0
b1(24,c2) 0
b2(1,c1) 0
b2(1,c2) 0
b2(2,c1) 0
b2(2,c2) 0
b2(3,c1) 0
b2(3,c2) 0
b2(4,c1) 0
b2(4,c2) 0
b2(5,c1) 0
b2(5,c2) 0
b2(6,c1) 0
b2(6,c2) 0
b2(7,c1) 0
b2(7,c2) 0
b2(8,c1) 0
b2(8,c2) 0
b2(9,c1) 0
b2(9,c2) 0
b2(10,c1) 0
b2(10,c2) 0
b2(11,c1) 0
b2(11,c2) 0
b2(12,c1) 0
b2(12,c2) 0
b2(13,c1) 0
b2(13,c2) 0
b2(14,c1) 0
b2(14,c2) 0
b2(15,c1) 0
b2(15,c2) 0
b2(16,c1) 0
b2(16,c2) 0
b2(17,c1) 0
b2(17,c2) 0
b2(18,c1) 0
b2(18,c2) 0
b2(19,c1) 0
b2(19,c2) 0
b2(20,c1) 0
b2(20,c2) 0
b2(21,c1) 0
b2(21,c2) 0
b2(22,c1) 1
b2(22,c2) 0
b2(23,c1) 0
b2(23,c2) 0
b2(24,c1) 0
b2(24,c2) 0
b3(1,c1) 0
b3(1,c2) 0
b3(2,c1) 1
b3(2,c2) 0
b3(3,c1) 0
b3(3,c2) 0
b3(4,c1) 1
b3(4,c2) 0
b3(5,c1) 0
b3(5,c2) 0
b3(6,c1) 1
b3(6,c2) 0
b3(7,c1) 0
b3(7,c2) 0
b3(8,c1) 1
b3(8,c2) 0
b3(9,c1) 0
b3(9,c2) 0
b3(10,c1) 0
b3(10,c2) 0
b3(11,c1) 1
b3(11,c2) 0
b3(12,c1) 0
b3(12,c2) 0
b3(13,c1) 0
b3(13,c2) 0
b3(14,c1) 0
b3(14,c2) 0
b3(15,c1) 1
b3(15,c2) 0
b3(16,c1) 0
b3(16,c2) 0
b3(17,c1) 1
b3(17,c2) 0
b3(18,c1) 0
b3(18,c2) 0
b3(19,c1) 0
b3(19,c2) 0
b3(20,c1) 0
b3(20,c2) 0
b3(21,c1) 1
b3(21,c2) 0
b3(22,c1) 0
b3(22,c2) 0
b3(23,c1) 1
b3(23,c2) 0
b3(24,c1) 1
b3(24,c2) 1
b4(1,c1) 0
b4(1,c2) 0
b4(2,c1) 0
b4(2,c2) 0
b4(3,c1) 0
b4(3,c2) 1
b4(4,c1) 0
b4(4,c2) 0
b4(5,c1) 0
b4(5,c2) 1
b4(6,c1) 0
b4(6,c2) 0
b4(7,c1) 0
b4(7,c2) 1
b4(8,c1) 0
b4(8,c2) 0
b4(9,c1) 0
b4(9,c2) 1
b4(10,c1) 0
b4(10,c2) 1
b4(11,c1) 0
b4(11,c2) 0
b4(12,c1) 0
b4(12,c2) 1
b4(13,c1) 0
b4(13,c2) 1
b4(14,c1) 0
b4(14,c2) 1
b4(15,c1) 0
b4(15,c2) 0
b4(16,c1) 0
b4(16,c2) 1
b4(17,c1) 0
b4(17,c2) 0
b4(18,c1) 0
b4(18,c2) 1
b4(19,c1) 0
b4(19,c2) 1
b4(20,c1) 0
b4(20,c2) 1
b4(21,c1) 0
b4(21,c2) 0
b4(22,c1) 0
b4(22,c2) 1
b4(23,c1) 0
b4(23,c2) 0
b4(24,c1) 0
b4(24,c2) 0
